networks/zoo_44_369/zoo_44_369-lower.txt
Number of groups: 24
Flow 2: {2 3 0} {3 25 1} 
Flow 26: {3 10 0} {10 32 1} 
Flow 53: {1 16 0} {16 17 1} {17 18 2} {18 40 3} 
Flow 57: {20 19 0} {19 22 1} {22 44 2} 
Flow 80: {5 8 0} {8 7 1} {7 4 2} {4 3 3} 
Flow 82: {6 5 0} {5 27 1} 
Flow 119: {4 2 0} {2 10 1} {10 20 2} {20 21 3} {21 43 4} 
Flow 125: {9 6 0} {6 28 1} 
Flow 156: {19 18 0} {18 17 1} {17 16 2} {16 1 3} {1 23 4} 
Flow 165: {11 22 0} {22 21 1} {21 14 2} {14 13 3} {13 35 4} 
Flow 189: {12 22 0} {22 19 1} {19 20 2} {20 42 3} 
Flow 193: {13 3 0} {3 2 1} {2 24 2} 
Flow 202: {13 14 0} {14 21 1} {21 22 2} {22 12 3} {12 34 4} 
Flow 204: {3 4 0} {4 1 1} {1 15 2} {15 37 3} 
Flow 235: {15 1 0} {1 4 1} {4 26 2} 
Flow 238: {7 8 0} {8 30 1} 
Flow 239: {8 5 0} {5 6 1} {6 9 2} {9 31 3} 
Flow 243: {15 16 0} {16 38 1} 
Flow 246: {18 19 0} {19 41 1} 
Flow 265: {10 3 0} {3 13 1} 
Flow 267: {16 15 0} 
Flow 286: {17 20 0} {20 10 1} {10 14 2} {14 36 3} 
Flow 339: {14 10 0} {10 2 1} {2 4 2} {4 7 3} {7 29 4} 
Flow 348: {21 20 0} {20 17 1} {17 39 2} 
Time taken running everything: 0 seconds
