networks/zoo_44_369/zoo_44_369-lower.sol
<?xml version = "1.0" encoding="UTF-8" standalone="yes"?>
<CPLEXSolution version="1.2">
 <header
   problemName="networks/zoo_44_369/zoo_44_369-lower.lp"
   solutionName="incumbent"
   solutionIndex="-1"
   objectiveValue="24"
   solutionTypeValue="3"
   solutionTypeString="primal"
   solutionStatusValue="101"
   solutionStatusString="integer optimal solution"
   solutionMethodString="mip"
   primalFeasible="1"
   dualFeasible="1"
   MIPNodes="0"
   MIPIterations="909"
   writeLevel="3"/>
 <quality
   epInt="1.0000000000000001e-05"
   epRHS="9.9999999999999995e-07"
   maxIntInfeas="0"
   maxPrimalInfeas="0"
   maxX="1"
   maxSlack="1"/>
 <variables>
  <variable name="Y(2,3)" index="45" value="1"/>
  <variable name="Y(26,10)" index="1084" value="1"/>
  <variable name="Y(27,12)" index="1129" value="1"/>
  <variable name="Y(31,16)" index="1305" value="1"/>
  <variable name="Y(95,21)" index="4062" value="1"/>
  <variable name="Y(105,4)" index="4475" value="1"/>
  <variable name="Y(112,14)" index="4786" value="1"/>
  <variable name="Y(127,8)" index="5425" value="1"/>
  <variable name="Y(131,1)" index="5590" value="1"/>
  <variable name="Y(163,9)" index="6974" value="1"/>
  <variable name="Y(183,13)" index="7838" value="1"/>
  <variable name="Y(193,2)" index="8257" value="1"/>
  <variable name="Y(237,7)" index="10154" value="1"/>
  <variable name="Y(241,4)" index="10323" value="1"/>
  <variable name="Y(247,20)" index="10597" value="1"/>
  <variable name="Y(258,5)" index="11055" value="1"/>
  <variable name="Y(259,6)" index="11099" value="1"/>
  <variable name="Y(267,15)" index="11452" value="1"/>
  <variable name="Y(269,18)" index="11541" value="1"/>
  <variable name="Y(293,22)" index="12577" value="1"/>
  <variable name="Y(309,17)" index="13260" value="1"/>
  <variable name="Y(314,1)" index="13459" value="1"/>
  <variable name="Y(335,10)" index="14371" value="1"/>
  <variable name="Y(350,19)" index="15025" value="1"/>
  <variable name="X(1,4,241)" index="16107" value="1"/>
  <variable name="X(1,15,131)" index="16366" value="1"/>
  <variable name="X(1,16,31)" index="16635" value="1"/>
  <variable name="X(1,23,314)" index="17287" value="1"/>
  <variable name="X(2,3,2)" index="17344" value="1"/>
  <variable name="X(2,4,163)" index="17874" value="1"/>
  <variable name="X(2,10,95)" index="18175" value="1"/>
  <variable name="X(2,24,193)" index="18642" value="1"/>
  <variable name="X(3,2,193)" index="19011" value="1"/>
  <variable name="X(3,4,31)" index="19218" value="1"/>
  <variable name="X(3,10,26)" index="19582" value="1"/>
  <variable name="X(3,13,27)" index="19952" value="1"/>
  <variable name="X(3,25,2)" index="20296" value="1"/>
  <variable name="X(4,1,31)" index="20694" value="1"/>
  <variable name="X(4,2,95)" index="21127" value="1"/>
  <variable name="X(4,3,241)" index="21642" value="1"/>
  <variable name="X(4,7,163)" index="21933" value="1"/>
  <variable name="X(4,26,105)" index="22244" value="1"/>
  <variable name="X(5,6,163)" index="22671" value="1"/>
  <variable name="X(5,8,127)" index="23004" value="1"/>
  <variable name="X(5,27,258)" index="23504" value="1"/>
  <variable name="X(6,5,127)" index="23742" value="1"/>
  <variable name="X(6,9,163)" index="24147" value="1"/>
  <variable name="X(6,28,259)" index="24612" value="1"/>
  <variable name="X(7,4,105)" index="24827" value="1"/>
  <variable name="X(7,8,163)" index="25254" value="1"/>
  <variable name="X(7,29,237)" index="25697" value="1"/>
  <variable name="X(8,5,163)" index="25992" value="1"/>
  <variable name="X(8,7,105)" index="26303" value="1"/>
  <variable name="X(8,30,127)" index="26694" value="1"/>
  <variable name="X(9,6,127)" index="27063" value="1"/>
  <variable name="X(9,31,163)" index="27468" value="1"/>
  <variable name="X(10,2,163)" index="27837" value="1"/>
  <variable name="X(10,3,335)" index="28378" value="1"/>
  <variable name="X(10,14,112)" index="28524" value="1"/>
  <variable name="X(10,20,95)" index="28876" value="1"/>
  <variable name="X(10,32,26)" index="29176" value="1"/>
  <variable name="X(11,22,163)" index="29682" value="1"/>
  <variable name="X(12,22,183)" index="30071" value="1"/>
  <variable name="X(12,34,27)" index="30284" value="1"/>
  <variable name="X(13,3,193)" index="30819" value="1"/>
  <variable name="X(13,14,27)" index="31022" value="1"/>
  <variable name="X(13,35,183)" index="31547" value="1"/>
  <variable name="X(14,10,335)" index="32068" value="1"/>
  <variable name="X(14,13,183)" index="32285" value="1"/>
  <variable name="X(14,21,27)" index="32498" value="1"/>
  <variable name="X(14,36,112)" index="32952" value="1"/>
  <variable name="X(15,1,241)" index="33450" value="1"/>
  <variable name="X(15,16,247)" index="33825" value="1"/>
  <variable name="X(15,37,267)" index="34214" value="1"/>
  <variable name="X(16,1,314)" index="34630" value="1"/>
  <variable name="X(16,15,267)" index="34952" value="1"/>
  <variable name="X(16,17,247)" index="35301" value="1"/>
  <variable name="X(16,38,31)" index="35454" value="1"/>
  <variable name="X(17,16,314)" index="36106" value="1"/>
  <variable name="X(17,18,269)" index="36430" value="1"/>
  <variable name="X(17,20,247)" index="36777" value="1"/>
  <variable name="X(17,39,309)" index="37208" value="1"/>
  <variable name="X(18,17,309)" index="37577" value="1"/>
  <variable name="X(18,19,293)" index="37930" value="1"/>
  <variable name="X(18,40,269)" index="38275" value="1"/>
  <variable name="X(19,18,309)" index="38684" value="1"/>
  <variable name="X(19,20,163)" index="38907" value="1"/>
  <variable name="X(19,22,293)" index="39406" value="1"/>
  <variable name="X(19,41,350)" index="39832" value="1"/>
  <variable name="X(20,10,163)" index="40014" value="1"/>
  <variable name="X(20,17,314)" index="40534" value="1"/>
  <variable name="X(20,19,350)" index="40939" value="1"/>
  <variable name="X(20,21,95)" index="41053" value="1"/>
  <variable name="X(20,42,247)" index="41574" value="1"/>
  <variable name="X(21,14,183)" index="41879" value="1"/>
  <variable name="X(21,20,350)" index="42415" value="1"/>
  <variable name="X(21,22,27)" index="42461" value="1"/>
  <variable name="X(21,43,95)" index="42898" value="1"/>
  <variable name="X(22,12,27)" index="43199" value="1"/>
  <variable name="X(22,19,163)" index="43704" value="1"/>
  <variable name="X(22,21,183)" index="44093" value="1"/>
  <variable name="X(22,44,293)" index="44572" value="1"/>
 </variables>
</CPLEXSolution>
